ia/t1/codigo/instances/teste.tsp
self.usedNAME: berlin10
TYPE: TSP
COMMENT: 5 locations in Berlin (Groetschel)
DIMENSION: 5
EDGE_WEIGHT_TYPE: EUC_2D
NODE_COORD_SECTION
1 565.0 575.0
2 25.0 185.0
3 845.0 655.0
4 25.0 230.0
5 580.0 1175.0
EOF
