pascal/teste.txt
5 3 8 2 3 9 8 9 7 5 3 0
